52642
0 26 4123
26 30 4459
30 24 299
24 10 545
10 44 436
44 51 721
51 14 630
14 35 678
35 45 402
45 38 213
38 15 450
15 9 733
9 21 117
21 28 543
28 20 515
20 22 176
22 16 618
16 47 415
47 48 761
48 18 934
18 40 1369
40 31 361
31 43 675
43 7 383
7 37 367
37 49 1180
49 19 763
19 23 739
23 34 295
34 4 322
4 36 467
36 6 516
6 39 1176
39 50 1041
50 12 644
12 42 790
42 2 1096
2 5 384
5 27 404
27 54 487
54 25 397
25 52 1236
52 33 395
33 53 400
53 46 490
46 29 944
29 3 380
3 17 606
17 11 767
11 8 723
8 13 470
13 1 433
1 41 1721
41 32 4806
32 0 7621
